6 32 4 10
12 18 13 6 12 10 11 20 5 9 5 17 14 17 13 6 13 8 16 20 14 4 3 17 11 1 8 14 8 16 10 17 
6.47 2.6 6.87 3.22 5.38 2.26 1.17 2.68 7.28 2.52 2.15 3.81 3.98 4.19 1.18 1.42 3.53 0.54 4.08 4.58 5.53 6.06 6.16 0.33 0.4 1.4 7.15 7.95 7.21 2.92 7.42 4.64 
2.06 6.4 4.57 5.29 7.86 7.3 2.67 0.42 1.94 4.96 7.51 5.65 4.36 1.67 5.55 0.48 3.72 0.75 4.74 7.79 6.5 7.81 5.29 0.96 7.68 2.66 5.59 6.31 0.54 3.48 7.72 6.34 
7.43 7.42 7.32 6.22 0.71 3.89 3.12 3.19 4.42 0.68 3.92 0.08 2.7 3.01 5.71 5.68 4.77 1.85 3.5 3.32 3.95 5.87 6.6 0.69 4.19 1.1 0.32 7.53 6.2 6.98 4.95 0.5 
7.61 5.14 4.76 5.11 5.26 5.77 6.08 0.93 5.1 2.88 3.28 4.21 3.78 0.27 1.53 7.69 2.52 6.32 7.82 1.61 2.79 1.8 5.57 2.37 7.09 3.33 7.01 4.62 4.19 3.07 5.19 2.75 
4 4 4 4 4 4 4 4 4 4 4 4 4 4 4 4 4 4 4 4 4 4 4 4 4 4 4 4 4 4 4 4 
0.28 6.88 6.9 5.68 4.38 4.64 1.17 5.92 0.95 3.96 1.3 2.2 5.07 1.57 1.28 2.76 1.95 2.69 0.1 3.65 4.76 5.13 2.83 4.43 2.49 6.13 7.66 0.77 6.38 5.19 3.8 5.23 
1 1 1 1 1 1 1 1 1 1 1 1 1 1 1 1 1 1 1 1 1 1 1 1 1 1 1 1 1 1 1 1 
1 1 1 1 1 1 1 1 1 1 1 1 1 1 1 1 1 1 1 1 1 1 1 1 1 1 1 1 1 1 1 1 
1 1 1 1 1 1 1 1 1 1 1 1 1 1 1 1 1 1 1 1 1 1 1 1 1 1 1 1 1 1 1 1 
1 1 1 1 1 1 1 1 1 1 1 1 1 1 1 1 1 1 1 1 1 1 1 1 1 1 1 1 1 1 1 1 
1 1 1 1 1 1 1 1 1 1 1 1 1 1 1 1 1 1 1 1 1 1 1 1 1 1 1 1 1 1 1 1 
1 1 1 1 1 1 1 1 1 1 1 1 1 1 1 1 1 1 1 1 1 1 1 1 1 1 1 1 1 1 1 1 
0.01 0.01 0.01 0.01 0.01 0.01 0.01 0.01 0.01 0.01 0.01 0.01 0.01 0.01 0.01 0.01 0.01 0.01 0.01 0.01 0.01 0.01 0.01 0.01 0.01 0.01 0.01 0.01 0.01 0.01 0.01 0.01 
0.02 0.02 0.02 0.02 0.02 0.02 0.02 0.02 0.02 0.02 0.02 0.02 0.02 0.02 0.02 0.02 0.02 0.02 0.02 0.02 0.02 0.02 0.02 0.02 0.02 0.02 0.02 0.02 0.02 0.02 0.02 0.02 
0.03 0.03 0.03 0.03 0.03 0.03 0.03 0.03 0.03 0.03 0.03 0.03 0.03 0.03 0.03 0.03 0.03 0.03 0.03 0.03 0.03 0.03 0.03 0.03 0.03 0.03 0.03 0.03 0.03 0.03 0.03 0.03 
0.04 0.04 0.04 0.04 0.04 0.04 0.04 0.04 0.04 0.04 0.04 0.04 0.04 0.04 0.04 0.04 0.04 0.04 0.04 0.04 0.04 0.04 0.04 0.04 0.04 0.04 0.04 0.04 0.04 0.04 0.04 0.04 
0.05 0.05 0.05 0.05 0.05 0.05 0.05 0.05 0.05 0.05 0.05 0.05 0.05 0.05 0.05 0.05 0.05 0.05 0.05 0.05 0.05 0.05 0.05 0.05 0.05 0.05 0.05 0.05 0.05 0.05 0.05 0.05 
1 1 1 1 1 1 1 1 1 1 1 1 1 1 1 1 1 1 1 1 1 1 1 1 1 1 1 1 1 1 1 1 
